# Objective value = 125
WA1n 0
WA1p 0
WA2n 0
WA2p 1
WB1n 0
WB1p 0
WB2n 0
WB2p 1
WC1n 1
WC1p 0
WD1n 1
WD1p 0
WE1n 0
WE1p 2
WE2n 0
WE2p 1
WF1n 3
WF1p 0
WF2n 1
WF2p 0
WG1n 0
WG1p 6
WH1n 9
WH1p 0
WH2n 1
WH2p 0
WI1n 0
WI1p 9
WI2n 0
WI2p 1
WJ1n 25
WJ1p 0
WK1n 25
WK1p 0
WL1n 25
WL1p 0
WT1n 5
WT1p 0
WT2n 1
WT2p 0
5 7
a 0
b 1
c 0
d 1
e 0
f 0
g 1
h 1
i 0
j 0
k 1
l 0
m 0
n 1
o 1
p 0
q 0
r 0
s 0
t 0
